GLPSOL--GLPK LP/MIP Solver 5.0
Parameter(s) specified in the command line:
 --lp ../modeles/3_239.lp --log 3_239.log
Reading problem data from '../modeles/3_239.lp'...
730 rows, 1440 columns, 5034 non-zeros
717 integer variables, all of which are binary
2179 lines were read
GLPK Integer Optimizer 5.0
730 rows, 1440 columns, 5034 non-zeros
717 integer variables, all of which are binary
Preprocessing...
714 constraint coefficient(s) were reduced
730 rows, 1437 columns, 5031 non-zeros
717 integer variables, all of which are binary
Scaling...
 A: min|aij| =  7.003e-05  max|aij| =  4.000e+00  ratio =  5.712e+04
GM: min|aij| =  6.468e-02  max|aij| =  1.546e+01  ratio =  2.390e+02
EQ: min|aij| =  4.184e-03  max|aij| =  1.000e+00  ratio =  2.390e+02
2N: min|aij| =  3.906e-03  max|aij| =  1.744e+00  ratio =  4.464e+02
Constructing initial basis...
Size of triangular part is 730
Solving LP relaxation...
GLPK Simplex Optimizer 5.0
730 rows, 1437 columns, 5031 non-zeros
      0: obj =   6.000000000e+00 inf =   1.450e+01 (7)
     44: obj =   4.999037115e-01 inf =   0.000e+00 (0)
*   161: obj =  -1.732048363e+00 inf =   1.076e-15 (0)
OPTIMAL LP SOLUTION FOUND
Integer optimization begins...
Long-step dual simplex will be used
+   161: mip =     not found yet >=              -inf        (1; 0)
+   168: >>>>>  -1.732048363e+00 >=  -1.732048363e+00 < 0.1% (7; 0)
+   168: mip =  -1.732048363e+00 >=     tree is empty   0.0% (0; 13)
INTEGER OPTIMAL SOLUTION FOUND
Time used:   0.0 secs
Memory used: 2.1 Mb (2212061 bytes)
